NAME: instance_2177
TYPE: TSP
DIMENSION: 20
EDGE_WEIGHT_TYPE: EUC_2D
NODE_COORD_SECTION
0 17.43 41.08
1 72.61 88.69
2 5.71 92.23
3 62.14 31.24
4 1.82 50.01
5 35.48 37.08
6 53.86 58.05
7 72.86 62.02
8 39.91 64.31
9 1.04 55.58
10 63.87 2.27
11 2.32 34.80
12 87.85 98.42
13 58.43 90.01
14 30.77 56.80
15 24.22 98.63
16 75.95 57.93
17 74.93 42.53
18 88.09 54.99
19 45.03 1.60
EOF
